SAT
-1 -100 -99 -98 97 45 -82 -17 96 84 -70 -38 -68 -49 -83 28 -26 -62 -93 24 48 59 50 74 40 14 95 -75 20 -30 -35 -63 11 -91 21 41 10 90 -56 88 5 55 66 31 -71 32 87 -69 18 -80 -47 15 67 79 46 23 44 -51 89 34 3 64 -73 60 -37 29 -13 -58 -2 -92 27 54 61 81 -8 76 -39 -43 85 -94 -16 65 25 12 77 72 19 -78 -53 52 -6 22 -7 57 -86 4 -33 36 -42 9 0
